DIR: 0.0, EFF: 0.8333333333333333, INT: 0.08333333333333333, OBJ: 0.08333333333333333
original problem has 3474 variables (192 bin, 0 int, 0 impl, 3282 cont) and 3216 constraints
unknown variable <t_x473> in line 2 of solution file </mnt/lscratch/users/dferrario/Adaptive-Cutsel-MILP/TransformedSolutions/a1c1s1__trans__seed__1.sol>
  (further unknown variables are ignored)
1/1 feasible solution given by solution candidate storage, new primal bound 1.150344e+04

presolving:
   (0.0s) running MILP presolver
   (0.0s) MILP presolver (19 rounds): 0 aggregations, 24 fixings, 238 bound changes
   (0.1s) probing cycle finished: starting next cycle
presolving (1 rounds: 1 fast, 1 medium, 1 exhaustive):
 999 deleted vars, 1012 deleted constraints, 0 added constraints, 277 tightened bounds, 0 added holes, 1 changed sides, 630 changed coefficients
 5249 implications, 20 cliques
presolved problem has 2475 variables (192 bin, 0 int, 0 impl, 2283 cont) and 2204 constraints
    885 constraints of type <varbound>
   1319 constraints of type <linear>
Presolving Time: 0.14
transformed 1/1 original solutions to the transformed problem space

 time | node  | left  |LP iter|LP it/n|mem/heur|mdpt |vars |cons |rows |cuts |sepa|confs|strbr|  dualbound   | primalbound  |  gap   | compl. 
  0.2s|     1 |     0 |  1203 |     - |    20M |   0 |2475 |2204 |2204 |   0 |  0 |   0 |   0 | 2.290020e+03 | 1.150344e+04 | 402.33%| unknown
Computing relative interior point (time limit: 19.8086, iter limit: 12030) ...
  0.8s|     1 |     0 |  1220 |     - |    22M |   0 |2475 |2204 |2214 |  10 |  1 |   0 |   0 | 2.711438e+03 | 1.150344e+04 | 324.26%| unknown
  0.9s|     1 |     0 |  1263 |     - |    24M |   0 |2475 |2204 |2224 |  20 |  2 |   0 |   0 | 2.832957e+03 | 1.150344e+04 | 306.06%| unknown
  1.0s|     1 |     0 |  1317 |     - |    24M |   0 |2475 |2204 |2234 |  30 |  3 |   0 |   0 | 3.033019e+03 | 1.150344e+04 | 279.27%| unknown
  1.1s|     1 |     0 |  1339 |     - |    25M |   0 |2475 |2204 |2244 |  40 |  4 |   0 |   0 | 3.127138e+03 | 1.150344e+04 | 267.86%| unknown
  1.3s|     1 |     0 |  1391 |     - |    25M |   0 |2475 |2204 |2254 |  50 |  5 |   0 |   0 | 3.241872e+03 | 1.150344e+04 | 254.84%| unknown
  1.4s|     1 |     0 |  1414 |     - |    27M |   0 |2475 |2204 |2264 |  60 |  6 |   0 |   0 | 3.296812e+03 | 1.150344e+04 | 248.93%| unknown
  1.6s|     1 |     0 |  1464 |     - |    28M |   0 |2475 |2204 |2274 |  70 |  7 |   0 |   0 | 3.395605e+03 | 1.150344e+04 | 238.77%| unknown
  1.7s|     1 |     0 |  1509 |     - |    28M |   0 |2475 |2204 |2284 |  80 |  8 |   0 |   0 | 3.458237e+03 | 1.150344e+04 | 232.64%| unknown
  1.9s|     1 |     0 |  1562 |     - |    29M |   0 |2475 |2204 |2294 |  90 |  9 |   0 |   0 | 3.527543e+03 | 1.150344e+04 | 226.10%| unknown
  2.0s|     1 |     0 |  1615 |     - |    29M |   0 |2475 |2204 |2304 | 100 | 10 |   0 |   0 | 3.604954e+03 | 1.150344e+04 | 219.10%| unknown
  2.1s|     1 |     0 |  1652 |     - |    29M |   0 |2475 |2204 |2314 | 110 | 11 |   0 |   0 | 3.650386e+03 | 1.150344e+04 | 215.13%| unknown
  2.3s|     1 |     0 |  1685 |     - |    32M |   0 |2475 |2204 |2324 | 120 | 12 |   0 |   0 | 3.694632e+03 | 1.150344e+04 | 211.36%| unknown
  2.4s|     1 |     0 |  1745 |     - |    32M |   0 |2475 |2204 |2334 | 130 | 13 |   0 |   0 | 3.880019e+03 | 1.150344e+04 | 196.48%| unknown
  2.6s|     1 |     0 |  1808 |     - |    33M |   0 |2475 |2204 |2344 | 140 | 14 |   0 |   0 | 3.990304e+03 | 1.150344e+04 | 188.28%| unknown
 time | node  | left  |LP iter|LP it/n|mem/heur|mdpt |vars |cons |rows |cuts |sepa|confs|strbr|  dualbound   | primalbound  |  gap   | compl. 
  2.8s|     1 |     0 |  1849 |     - |    34M |   0 |2475 |2204 |2354 | 150 | 15 |   0 |   0 | 4.105600e+03 | 1.150344e+04 | 180.19%| unknown
  2.9s|     1 |     0 |  1902 |     - |    34M |   0 |2475 |2204 |2364 | 160 | 16 |   0 |   0 | 4.300082e+03 | 1.150344e+04 | 167.52%| unknown
  3.1s|     1 |     0 |  1939 |     - |    35M |   0 |2475 |2204 |2371 | 170 | 17 |   0 |   0 | 4.394556e+03 | 1.150344e+04 | 161.77%| unknown
  3.2s|     1 |     0 |  1969 |     - |    37M |   0 |2475 |2204 |2381 | 180 | 18 |   0 |   0 | 4.422450e+03 | 1.150344e+04 | 160.11%| unknown
  3.4s|     1 |     0 |  2042 |     - |    38M |   0 |2475 |2204 |2391 | 190 | 19 |   0 |   0 | 4.532337e+03 | 1.150344e+04 | 153.81%| unknown
  3.6s|     1 |     0 |  2087 |     - |    39M |   0 |2475 |2204 |2401 | 200 | 20 |   0 |   0 | 4.596092e+03 | 1.150344e+04 | 150.29%| unknown
  3.8s|     1 |     0 |  2202 |     - |    39M |   0 |2475 |2204 |2411 | 210 | 21 |   0 |   0 | 4.843213e+03 | 1.150344e+04 | 137.52%| unknown
  4.0s|     1 |     0 |  2283 |     - |    40M |   0 |2475 |2204 |2421 | 220 | 22 |   0 |   0 | 4.955851e+03 | 1.150344e+04 | 132.12%| unknown
  4.1s|     1 |     0 |  2349 |     - |    41M |   0 |2475 |2204 |2424 | 230 | 23 |   0 |   0 | 5.126182e+03 | 1.150344e+04 | 124.41%| unknown
  4.3s|     1 |     0 |  2428 |     - |    42M |   0 |2475 |2204 |2434 | 240 | 24 |   0 |   0 | 5.280809e+03 | 1.150344e+04 | 117.83%| unknown
  4.5s|     1 |     0 |  2492 |     - |    43M |   0 |2475 |2204 |2444 | 250 | 25 |   0 |   0 | 5.383800e+03 | 1.150344e+04 | 113.67%| unknown
  4.7s|     1 |     0 |  2555 |     - |    43M |   0 |2475 |2204 |2454 | 260 | 26 |   0 |   0 | 5.433764e+03 | 1.150344e+04 | 111.70%| unknown
  4.8s|     1 |     0 |  2691 |     - |    43M |   0 |2475 |2204 |2464 | 270 | 27 |   0 |   0 | 5.729065e+03 | 1.150344e+04 | 100.79%| unknown
  4.8s|     1 |     0 |  2731 |     - |    43M |   0 |2475 |2204 |2474 | 280 | 28 |   0 |   0 | 5.766258e+03 | 1.150344e+04 |  99.50%| unknown
  4.9s|     1 |     0 |  2805 |     - |    43M |   0 |2475 |2204 |2477 | 290 | 29 |   0 |   0 | 5.855451e+03 | 1.150344e+04 |  96.46%| unknown
 time | node  | left  |LP iter|LP it/n|mem/heur|mdpt |vars |cons |rows |cuts |sepa|confs|strbr|  dualbound   | primalbound  |  gap   | compl. 
  4.9s|     1 |     0 |  2927 |     - |    43M |   0 |2475 |2204 |2487 | 300 | 30 |   0 |   0 | 5.996753e+03 | 1.150344e+04 |  91.83%| unknown
  5.0s|     1 |     0 |  3000 |     - |    43M |   0 |2475 |2204 |2497 | 310 | 31 |   0 |   0 | 6.051709e+03 | 1.150344e+04 |  90.09%| unknown
  5.1s|     1 |     0 |  3025 |     - |    43M |   0 |2475 |2204 |2507 | 320 | 32 |   0 |   0 | 6.108185e+03 | 1.150344e+04 |  88.33%| unknown
  5.1s|     1 |     0 |  3063 |     - |    43M |   0 |2475 |2204 |2517 | 330 | 33 |   0 |   0 | 6.174728e+03 | 1.150344e+04 |  86.30%| unknown
  5.2s|     1 |     0 |  3085 |     - |    43M |   0 |2475 |2204 |2527 | 340 | 34 |   0 |   0 | 6.185022e+03 | 1.150344e+04 |  85.99%| unknown
  5.2s|     1 |     0 |  3164 |     - |    43M |   0 |2475 |2204 |2520 | 350 | 35 |   0 |   0 | 6.301225e+03 | 1.150344e+04 |  82.56%| unknown
  5.3s|     1 |     0 |  3279 |     - |    43M |   0 |2475 |2204 |2530 | 360 | 36 |   0 |   0 | 6.576890e+03 | 1.150344e+04 |  74.91%| unknown
  5.4s|     1 |     0 |  3328 |     - |    43M |   0 |2475 |2204 |2540 | 370 | 37 |   0 |   0 | 6.630949e+03 | 1.150344e+04 |  73.48%| unknown
  5.4s|     1 |     0 |  3408 |     - |    43M |   0 |2475 |2204 |2550 | 380 | 38 |   0 |   0 | 6.748015e+03 | 1.150344e+04 |  70.47%| unknown
  5.5s|     1 |     0 |  3469 |     - |    43M |   0 |2475 |2204 |2560 | 390 | 39 |   0 |   0 | 6.799373e+03 | 1.150344e+04 |  69.18%| unknown
  5.5s|     1 |     0 |  3539 |     - |    43M |   0 |2475 |2204 |2570 | 400 | 40 |   0 |   0 | 6.863425e+03 | 1.150344e+04 |  67.60%| unknown
  5.6s|     1 |     0 |  3596 |     - |    43M |   0 |2475 |2204 |2573 | 410 | 41 |   0 |   0 | 6.897299e+03 | 1.150344e+04 |  66.78%| unknown
  5.6s|     1 |     0 |  3674 |     - |    43M |   0 |2475 |2204 |2583 | 420 | 42 |   0 |   0 | 6.962505e+03 | 1.150344e+04 |  65.22%| unknown
  5.7s|     1 |     0 |  3750 |     - |    43M |   0 |2475 |2204 |2593 | 430 | 43 |   0 |   0 | 7.057404e+03 | 1.150344e+04 |  63.00%| unknown
  5.7s|     1 |     0 |  3831 |     - |    43M |   0 |2475 |2204 |2603 | 440 | 44 |   0 |   0 | 7.139870e+03 | 1.150344e+04 |  61.12%| unknown
 time | node  | left  |LP iter|LP it/n|mem/heur|mdpt |vars |cons |rows |cuts |sepa|confs|strbr|  dualbound   | primalbound  |  gap   | compl. 
  5.8s|     1 |     0 |  3876 |     - |    44M |   0 |2475 |2204 |2613 | 450 | 45 |   0 |   0 | 7.211499e+03 | 1.150344e+04 |  59.52%| unknown
  5.8s|     1 |     0 |  4002 |     - |    44M |   0 |2475 |2204 |2623 | 460 | 46 |   0 |   0 | 7.290511e+03 | 1.150344e+04 |  57.79%| unknown
  5.9s|     1 |     0 |  4097 |     - |    44M |   0 |2475 |2204 |2614 | 470 | 47 |   0 |   0 | 7.363283e+03 | 1.150344e+04 |  56.23%| unknown
  5.9s|     1 |     0 |  4270 |     - |    44M |   0 |2475 |2204 |2624 | 480 | 48 |   0 |   0 | 7.440995e+03 | 1.150344e+04 |  54.60%| unknown
  6.0s|     1 |     0 |  4472 |     - |    45M |   0 |2475 |2204 |2634 | 490 | 49 |   0 |   0 | 7.585798e+03 | 1.150344e+04 |  51.64%| unknown
  6.0s|     1 |     0 |  4576 |     - |    45M |   0 |2475 |2204 |2644 | 500 | 50 |   0 |   0 | 7.653972e+03 | 1.150344e+04 |  50.29%| unknown
  6.0s|     1 |     2 |  4576 |     - |    45M |   0 |2475 |2204 |2644 | 500 | 50 |   0 |   0 | 7.653972e+03 | 1.150344e+04 |  50.29%| unknown

SCIP Status        : solving was interrupted [node limit reached]
Solving Time (sec) : 6.05
Solving Nodes      : 1
Primal Bound       : +1.15034441250000e+04 (1 solutions)
Dual Bound         : +7.65397210052548e+03
Gap                : 50.29 %
